WARNING: for repeatability, setting FPU to use double precision
============================[ Problem Statistics ]=============================
|                                                                             |
|  Number of variables:            50                                         |
|  Number of clauses:             218                                         |
|  Parse time:                   0.00 s                                       |
|                                                                             |
============================[ Search Statistics ]==============================
| Conflicts |          ORIGINAL         |          LEARNT          | Progress |
|           |    Vars  Clauses Literals |    Limit  Clauses Lit/Cl |          |
===============================================================================
===============================================================================
restarts              : 1
conflicts             : 48             (32653 /sec)
decisions             : 64             (0.00 % random) (43537 /sec)
propagations          : 702            (477551 /sec)
conflict literals     : 180            (14.29 % deleted)
Memory used           : 20.00 MB
CPU time              : 0.00147 s

SATISFIABLE
